3 6 18 2 17 14 9 1 4 16 15 13 11 12 7 0 8 10 5 19  
3 6 8 18 2 14 1 17 16 0 4 5 9 11 12 13 19 7 10 15  
3 6 8 18 2 14 1 17 16 9 4 12 0 5 11 13 7 19 10 15  
3 6 18 2 8 14 1 17 16 9 4 13 12 11 0 10 5 19 15 7  
3 6 8 18 2 14 1 17 9 4 0 15 16 13 12 11 19 7 10 5  
3 6 8 18 17 16 1 2 14 9 4 15 13 12 11 0 7 10 19 5  
3 6 8 18 2 14 1 17 9 16 0 4 13 5 11 12 19 7 10 15  
3 6 8 18 2 14 1 17 16 9 4 12 0 5 11 13 7 19 10 15  
3 6 8 18 2 14 1 17 16 9 4 19 0 5 11 13 7 12 10 15  
3 6 18 2 14 1 17 16 9 4 15 13 12 11 0 7 8 10 5 19  
3 6 18 2 1 14 17 16 9 4 8 13 12 11 0 7 10 15 19 5  
3 6 18 2 14 1 17 9 4 16 13 12 11 0 7 8 15 10 19 5  
3 6 18 2 1 14 17 16 9 4 5 13 12 15 11 0 8 10 19 7  
3 6 1 18 2 14 17 4 16 9 15 11 12 13 5 0 8 10 19 7  
3 6 8 18 17 16 1 2 14 9 4 15 13 12 11 7 0 10 19 5  
3 6 18 2 4 1 17 9 14 0 16 15 13 12 11 8 5 10 19 7  
3 6 18 1 2 14 17 16 9 4 15 13 12 11 0 7 8 10 19 5  
3 6 8 18 2 14 1 17 16 9 4 15 13 11 12 0 7 10 5 19  
3 6 8 18 2 14 1 17 16 9 4 15 13 11 12 0 5 7 10 19  
3 6 18 1 2 14 17 9 4 16 15 11 12 13 0 7 8 10 19 5  
3 6 8 18 2 14 17 1 5 9 4 0 16 13 11 12 19 7 10 15  
3 6 8 18 2 14 1 17 9 4 0 5 16 15 13 12 11 10 19 7  
3 6 8 18 2 4 17 14 0 1 5 9 16 13 11 12 19 7 10 15  
3 6 18 2 1 14 17 16 9 4 8 13 12 11 19 7 10 15 5 0  
3 6 8 18 2 4 1 14 17 5 0 16 9 7 12 10 11 13 19 15  
3 6 8 18 2 4 1 14 17 5 0 16 9 19 13 12 11 7 10 15  
3 6 18 2 8 1 14 17 16 9 4 13 12 11 0 10 5 19 7 15  
3 6 18 2 1 14 17 16 9 19 4 15 13 12 11 0 7 8 10 5  
3 6 18 1 17 16 2 14 9 4 11 12 13 7 8 0 10 15 19 5  
3 6 8 18 2 14 1 17 16 9 4 15 11 13 12 19 10 5 0 7  
3 6 8 18 2 14 1 17 9 4 0 5 16 15 13 12 10 11 19 7  
3 6 8 18 2 14 1 17 16 9 4 19 13 11 12 0 5 10 15 7  
3 6 8 18 2 4 1 14 17 5 0 16 9 19 15 13 12 10 7 11  
3 6 18 1 2 14 17 16 9 15 4 13 12 11 0 7 8 10 5 19  
3 6 18 2 1 17 16 14 9 4 11 12 13 7 0 8 10 19 5 15  
3 6 8 18 2 14 1 17 9 4 0 5 16 15 13 11 12 7 10 19  
3 6 8 18 2 14 1 17 16 9 4 15 11 12 19 7 13 10 5 0  
3 6 2 8 1 14 17 4 0 5 9 11 16 15 13 12 10 19 7 18  
3 6 18 2 8 14 1 17 16 9 4 13 12 11 0 5 7 15 10 19  
3 6 8 18 2 14 1 17 16 9 15 4 13 12 11 7 10 0 19 5  
3 6 8 18 2 4 1 14 17 5 0 16 9 12 15 13 11 7 19 10  
3 6 8 18 2 14 1 17 4 0 5 16 15 11 9 12 13 19 7 10  
3 6 18 2 1 17 16 14 9 4 12 11 13 7 0 8 10 19 5 15  
3 6 8 18 2 4 1 14 17 9 16 15 11 12 13 0 10 5 19 7  
3 6 18 2 14 1 17 16 9 4 8 13 12 11 0 7 10 15 19 5  
3 6 8 18 2 14 1 17 16 9 4 19 13 11 12 0 5 7 10 15  
3 6 8 18 2 14 1 17 16 9 4 12 13 11 0 7 10 19 5 15  
3 6 8 18 2 4 1 14 17 16 9 13 12 11 0 7 10 15 5 19  
3 6 18 2 4 8 1 14 17 16 9 13 12 11 0 7 15 10 5 19  
3 6 18 2 14 1 17 16 9 4 8 12 13 11 0 7 10 15 5 19  
3 6 8 18 2 4 17 14 0 1 5 9 16 15 13 12 10 11 19 7  
3 6 8 18 2 14 1 17 16 9 4 19 13 11 12 0 10 5 15 7  
3 6 18 1 2 14 17 16 9 4 12 0 15 11 13 8 5 10 19 7  
3 6 18 1 17 16 2 14 9 4 13 12 11 7 8 0 10 15 19 5  
3 6 8 18 2 14 1 17 16 9 4 13 12 11 0 7 10 15 5 19  
3 6 18 2 4 1 17 16 9 14 8 13 12 11 0 7 15 10 19 5  
3 6 18 2 8 1 17 16 9 4 15 13 14 12 11 0 7 10 19 5  
3 6 18 1 14 2 17 16 9 4 13 12 11 0 7 8 10 5 19 15  
3 6 18 2 1 9 17 4 14 19 16 15 11 12 13 0 7 8 10 5  
3 6 8 1 2 14 18 17 9 4 0 16 11 12 19 7 10 15 13 5  
3 6 8 18 2 4 17 14 0 1 5 9 16 13 11 12 19 7 10 15  
3 6 8 18 2 14 1 17 16 9 4 15 11 13 12 19 10 5 0 7  
3 6 8 18 2 4 1 14 17 5 0 16 9 19 15 11 12 10 13 7  
3 6 8 1 2 14 18 17 9 4 0 16 12 15 13 11 7 10 19 5  
3 6 18 2 14 1 17 16 9 4 8 12 11 0 7 13 10 5 19 15  
3 6 18 2 14 1 17 16 9 4 12 13 11 7 0 8 10 19 5 15  
3 6 18 2 1 17 14 4 12 5 0 9 16 15 13 11 8 10 19 7  
3 6 18 2 4 9 17 1 14 0 16 15 13 12 11 8 5 10 19 7  
3 6 8 18 2 14 1 17 16 9 4 15 11 12 13 0 7 10 5 19  
3 6 8 18 2 14 1 17 4 0 5 16 15 11 9 13 12 19 7 10  
3 6 8 18 2 14 1 17 16 9 4 0 15 5 13 11 12 7 10 19  
3 6 18 2 8 14 1 17 16 9 4 13 12 11 0 10 5 19 7 15  
3 6 18 2 14 1 17 16 9 4 12 13 11 7 0 10 8 5 19 15  
3 6 18 2 1 14 17 16 9 4 13 12 11 0 7 8 5 10 19 15  
3 6 18 1 2 14 17 16 9 4 12 0 15 11 13 8 5 10 7 19  
3 6 8 18 2 14 1 17 16 9 4 15 13 11 12 0 10 5 19 7  
3 6 18 1 2 17 14 9 4 12 0 16 15 13 11 8 5 10 19 7  
3 6 8 1 18 2 4 14 17 16 9 13 12 11 0 7 5 10 15 19  
3 6 18 2 4 9 17 1 14 0 16 8 15 13 12 11 7 10 19 5  
3 6 8 18 2 14 1 17 16 9 4 15 13 12 11 0 5 7 10 19  
3 6 18 2 1 17 16 14 9 4 12 11 13 7 0 8 5 10 15 19  
3 6 18 2 17 1 14 9 4 0 16 15 13 12 11 8 5 10 19 7  
3 6 8 18 2 14 1 17 4 0 5 16 15 11 9 12 10 13 19 7  
3 6 8 18 2 14 1 17 4 0 5 16 15 11 12 9 13 19 7 10  
3 6 8 18 2 14 1 17 16 9 4 0 13 11 12 7 10 19 15 5  
3 6 18 2 14 1 17 16 9 4 12 11 13 7 8 0 5 10 15 19  
3 6 8 18 2 14 1 17 16 9 4 0 19 11 13 12 5 7 10 15  
3 6 8 18 2 14 1 17 4 0 5 16 15 11 9 13 12 19 7 10  
3 6 8 18 2 4 1 14 17 5 0 16 9 12 13 19 7 10 11 15  
3 6 18 1 17 16 2 14 9 4 11 12 13 7 8 0 10 15 5 19  
3 6 18 2 14 1 17 16 9 4 8 12 13 11 19 7 10 15 5 0  
3 6 18 2 8 14 1 17 16 9 4 12 13 11 0 7 10 15 5 19  
3 6 8 18 2 14 1 17 4 0 5 16 9 15 13 11 12 10 19 7  
